[  0.  12.   3.   2.  13.  17.  12.   1.  26.  13.  15.  20.  20.   3.
   3.  12.  25.   2.  15.  24.   2.   7.  15.   2.  13.   9.  12.  26.
  17.  26.   9.  14.   9.  25.  13.  78.  93.  57.   2.  10.  31.  10.
  97.  16.  98. 103.  38. 100.  60.  15.  39. 102. 103.  10.  39.  97.
  18.  32.  96.  11.  15.  10.  13.   0. 103.  33.  13.  63.   3.  14.
   0.  12.   3.   2.  13.  17.  12.   1.  26.  13.  15.  20.  20.   3.
   3.  12.  25.   2.  15.  24.   2.   7.  15.   2.  13.   9.  12.  26.
  17.  26.   9.  14.   9.  25.  13.]